<instance format="XCSP3" type="CSP">
  <variables>
    <var id="x0"> 5 6 11 13 14 </var>
    <var id="x1"> 6 10 14 </var>
    <var id="x2"> 11 13 </var>
    <var id="x3"> 3 6 11 13 </var>
    <var id="x4"> 3 5 10 13 14 </var>
    <var id="x5"> 3 5 13 </var>
    <var id="x6"> 6 13 14 </var>
    <var id="x7"> 2 5 6 13 </var>
    <var id="x8"> 1 2 5 7 </var>
    <var id="x9"> 1 2 6 8 13 </var>
    <var id="x10"> 2 6 7 13 </var>
    <var id="x11"> 1 2 6 13 </var>
    <var id="x12"> 5 7 8 </var>
    <var as="x9" id="x13"/>
    <var id="x14"> 0 5 6 </var>
    <var id="x15"> 5 7 13 </var>
    <var id="x16"> 2 13 </var>
    <var id="x17"> 5 7 10 13 </var>
    <var id="x18"> 2 5 13 </var>
    <var id="x19"> 0 5 7 </var>
    <var id="x20"> 0 2 5 13 </var>
    <var id="x21"> 3 9 </var>
    <var id="x22"> 11..14 </var>
    <var id="x23"> 10 11 </var>
    <var id="x24"> 3 10 13 </var>
    <var id="x25"> 3 11 14 </var>
    <var id="x26"> 3 13 </var>
    <var id="x27"> 3 9 11 </var>
    <var id="x28"> 1 3 5 7 11 13 </var>
    <var id="x29"> 7 </var>
    <var id="x30"> 4 7 11 13 </var>
    <var id="x31"> 1 3 4 11 13 </var>
    <var id="x32"> 1 3..5 13 </var>
    <var id="x33"> 1 13 </var>
    <var id="x34"> 1 3 5 13 </var>
    <var id="x35"> 2 5 11 13 </var>
    <var id="x36"> 1 2 5 11 </var>
    <var id="x37"> 1 2 8 13 </var>
    <var id="x38"> 0 2 8 11 </var>
    <var id="x39"> 0 2 11 13 </var>
    <var id="x40"> 5 8 13 </var>
    <var id="x41"> 0..2 5 13 </var>
    <var id="x42"> 1 6 </var>
    <var id="x43"> 2 6 13 14 </var>
    <var id="x44"> 1 2 7 </var>
    <var id="x45"> 2 6 8 14 </var>
    <var id="x46"> 7 8 13 14 </var>
    <var id="x47"> 7 8 </var>
    <var id="x48"> 1 2 6 8 13 14 </var>
    <var id="x49"> 3 4 </var>
    <var id="x50"> 2 3 8 </var>
    <var id="x51"> 2 7 8 12 </var>
    <var id="x52"> 2 4 7 11 </var>
    <var id="x53"> 2..4 8 </var>
    <var id="x54"> 3 7 8 11 </var>
    <var id="x55"> 2 3 </var>
    <var id="x56"> 1..3 6 10 </var>
    <var id="x57"> 1 3 5 </var>
    <var id="x58"> 0 2 3 6 </var>
    <var id="x59"> 0 2 6 10 </var>
    <var id="x60"> 3 5 10 </var>
    <var id="x61"> 1..3 5 </var>
    <var id="x62"> 0..2 6 </var>
    <var id="x63"> 2 6 13 14 </var>
    <var as="x9" id="x64"/>
    <var id="x65"> 1 9 13 </var>
    <var id="x66"> 2 6 8 14 </var>
    <var id="x67"> 1 2 4 8 9 13 </var>
    <var id="x68"> 1 2 4 6 13 </var>
    <var id="x69"> 8 9 13 14 </var>
    <var id="x70"> 1 2 13 </var>
    <var id="x71"> 4 5 9 </var>
    <var id="x72"> 2 4 5 11 </var>
    <var id="x73"> 2 8 </var>
    <var id="x74"> 5 9 11 </var>
    <var id="x75"> 2 4 11 </var>
    <var id="x76"> 2 4 8 9 11 </var>
    <var id="x77"> 2 8 14 </var>
    <var id="x78"> 0 1 3 4 9 </var>
    <var id="x79"> 2 </var>
    <var id="x80"> 1 3 9 </var>
    <var id="x81"> 2 8 </var>
    <var id="x82"> 0 2 3 8 </var>
    <var id="x83"> 1 2 4 8 9 </var>
    <var id="x84"> 1..4 8 </var>
    <var id="x85"> 1 2 5 7 11 </var>
    <var id="x86"> 2 6 7 </var>
    <var id="x87"> 2 6 7 11 </var>
    <var id="x88"> 1 2 11 </var>
    <var id="x89"> 1..3 6 11 </var>
    <var id="x90"> 3 5 7 11 </var>
    <var id="x91"> 1 2 6 </var>
    <var id="x92"> 0 1 3 4 </var>
    <var id="x93"> 1 4 10 </var>
    <var id="x94"> 0 3 8 </var>
    <var id="x95"> 0 4 10 13 </var>
    <var id="x96"> 1 3 4 13 </var>
    <var id="x97"> 3 8 10 13 </var>
    <var id="x98"> 0 3 8 </var>
    <var id="x99"> 3 9 11 13 </var>
    <var id="x100"> 2 6 </var>
    <var id="x101"> 0 2 3 6 11 </var>
    <var id="x102"> 2 9 11 13 </var>
    <var id="x103"> 2 3 6 11 13 </var>
    <var id="x104"> 3 9 13 </var>
    <var id="x105"> 0 2 3 13 </var>
  </variables>
  <constraints>
    <group>
      <allDifferent> %... </allDifferent>
      <args> x0 x1 x2 x3 x4 x5 x6 </args>
      <args> x7 x8 x9 x10 x11 x12 x13 </args>
      <args> x14 x15 x16 x17 x18 x19 x20 </args>
      <args> x21 x22 x23 x24 x25 x26 x27 </args>
      <args> x28 x29 x30 x31 x32 x33 x34 </args>
      <args> x35 x36 x37 x38 x39 x40 x41 </args>
      <args> x42 x43 x44 x45 x46 x47 x48 </args>
      <args> x49 x50 x51 x52 x53 x54 x55 </args>
      <args> x56 x57 x58 x59 x60 x61 x62 </args>
      <args> x63 x64 x65 x66 x67 x68 x69 x70 </args>
      <args> x71 x72 x73 x74 x75 x76 x77 </args>
      <args> x78 x79 x80 x81 x82 x83 x84 </args>
      <args> x85 x86 x87 x88 x89 x90 x91 </args>
      <args> x92 x93 x94 x95 x96 x97 x98 </args>
      <args> x99 x100 x101 x102 x103 x104 x105 </args>
      <args> x14 x21 x42 x49 x71 x78 x92 </args>
      <args> x0 x7 x22 x35 x43 x63 x79 </args>
      <args> x8 x23 x36 x44 x72 x85 x93 </args>
      <args> x9 x24 x37 x50 x56 x64 x73 </args>
      <args> x15 x28 x57 x65 x74 x80 x99 </args>
      <args> x1 x29 x51 x66 x81 x86 x100 </args>
      <args> x25 x38 x45 x58 x82 x94 x101 </args>
      <args> x10 x30 x39 x52 x59 x75 x87 x95 </args>
      <args> x2 x16 x67 x76 x83 x88 x102 </args>
      <args> x3 x11 x31 x68 x89 x96 x103 </args>
      <args> x4 x17 x40 x46 x60 x69 x97 x104 </args>
      <args> x5 x18 x26 x32 x53 x61 x84 </args>
      <args> x12 x19 x27 x47 x54 x90 x98 </args>
      <args> x6 x13 x33 x48 x62 x77 x91 </args>
      <args> x20 x34 x41 x55 x70 x105 </args>
    </group>
  </constraints>
</instance>

